Route #1: 16 43 27 7 11 50 46
Route #2: 14 20 19 35 49 1 36 39
Route #3: 4 6 34 64 40 44 42 53
Route #4: 60 3 57 30 61 62
Route #5: 9 48 21 25 63
Route #6: 5 28 13
Route #7: 12 45 52 22 54 55 15 56 58
Route #8: 33 47 2 26 18 31
Route #9: 32 65 37 23 8 51 66
Route #10: 41 59 24 29 10 38 17
Cost 1032
Time 0.418636
Tempo = 0.4303583000000799